<number of tasks>
35

<cycle time>
69

<task times>
1 29
2 3
3 5
4 22
5 6
6 14
7 2
8 5
9 22
10 30
11 23
12 30
13 23
14 2
15 19
16 29
17 2
18 2
19 19
20 29
21 6
22 10
23 16
24 23
25 5
26 5
27 5
28 40
29 2
30 5
31 5
32 1
33 40
34 2
35 2

<precedence relations>
1,2
1,5
1,10
1,12
2,3
3,4
4,11
5,6
6,7
6,8
7,14
7,18
8,9
9,13
10,14
11,28
11,33
12,18
13,28
13,33
14,15
15,16
16,21
17,20
18,19
19,20
20,21
21,22
21,25
21,30
22,23
23,24
24,27
25,26
26,27
27,28
27,33
27,34
28,29
30,31
31,32
32,33
33,35

<setup times forward>
1,10:4
1,12:4
2,9:2
2,10:4
2,12:4
2,13:1
2,14:4
2,15:1
2,16:2
2,18:4
2,19:1
2,20:1
2,21:2
2,22:2
2,23:2
2,25:2
2,26:2
2,30:3
2,31:3
2,32:3
2,34:3
3,4:1
3,9:2
3,10:4
3,12:4
3,13:1
3,14:4
3,15:1
3,16:2
3,18:4
3,19:1
3,20:1
3,21:2
3,22:2
3,23:2
3,25:2
3,26:2
3,30:3
3,31:3
3,32:3
3,34:3
4,5:1
4,6:1
4,7:1
4,8:1
4,9:1
4,10:3
4,12:3
4,14:3
4,15:2
4,16:1
4,17:1
4,18:3
4,19:2
4,20:2
4,21:1
4,22:1
4,23:3
4,24:1
4,25:3
4,26:3
4,27:1
4,30:4
4,31:4
4,32:4
4,34:4
5,4:1
5,10:4
5,11:1
5,12:4
6,4:1
6,10:4
6,11:1
6,12:4
7,4:1
7,9:2
7,10:4
7,11:1
7,12:4
7,13:1
7,14:4
7,18:4
8,4:1
8,9:2
8,10:4
8,11:1
8,12:4
8,14:4
8,15:1
8,16:2
8,18:4
8,19:1
8,20:1
8,21:2
8,22:2
8,23:2
8,25:2
8,26:2
8,30:3
8,31:3
8,32:3
8,34:3
9,2:2
9,3:2
9,4:1
9,7:2
9,10:2
9,11:1
9,12:2
9,13:1
9,14:2
9,15:3
9,17:2
9,18:2
9,19:3
9,20:3
9,23:4
9,24:2
9,25:4
9,26:4
9,27:2
9,30:5
9,31:5
9,32:5
9,34:5
10,2:4
10,3:4
10,4:3
10,5:4
10,6:4
10,7:4
10,8:4
10,9:2
10,11:3
10,13:3
10,17:4
10,19:5
10,20:5
11,5:1
11,6:1
11,7:1
11,8:1
11,9:1
11,10:3
11,12:3
11,14:3
11,15:2
11,16:1
11,17:1
11,18:3
11,19:2
11,20:2
11,21:1
11,22:1
11,23:3
11,24:1
11,25:3
11,26:3
11,27:1
11,28:1
11,30:4
11,31:4
11,32:4
11,33:4
11,34:4
12,2:4
12,3:4
12,4:3
12,5:4
12,6:4
12,7:4
12,8:4
12,9:2
12,11:3
12,13:3
12,15:5
12,16:2
12,17:4
13,2:1
13,3:1
13,7:1
13,10:3
13,12:3
13,14:3
13,15:2
13,16:1
13,17:1
13,18:3
13,19:2
13,20:2
13,21:1
13,22:1
13,23:3
13,24:1
13,25:3
13,26:3
13,27:1
13,28:1
13,30:4
13,31:4
13,32:4
13,33:4
13,34:4
14,2:4
14,3:4
14,4:3
14,8:4
14,9:2
14,11:3
14,13:3
14,15:5
14,17:4
14,19:5
14,20:5
15,2:1
15,3:1
15,4:2
15,8:1
15,9:3
15,11:2
15,12:5
15,13:2
15,16:3
15,17:1
15,18:5
16,2:2
16,3:2
16,4:1
16,8:2
16,11:1
16,12:2
16,13:1
16,17:2
16,18:2
16,19:3
16,20:3
17,4:1
17,9:2
17,10:4
17,11:1
17,12:4
17,13:1
17,14:4
17,15:1
17,16:2
17,18:4
17,19:1
17,20:1
18,2:4
18,3:4
18,4:3
18,8:4
18,9:2
18,11:3
18,13:3
18,15:5
18,16:2
18,17:4
18,19:5
19,2:1
19,3:1
19,4:2
19,8:1
19,9:3
19,10:5
19,11:2
19,13:2
19,14:5
19,16:3
19,17:1
20,2:1
20,3:1
20,4:2
20,8:1
20,9:3
20,10:5
20,11:2
20,13:2
20,14:5
20,16:3
20,21:3
21,2:2
21,3:2
21,4:1
21,8:2
21,11:1
21,13:1
21,25:4
21,30:5
22,2:2
22,3:2
22,4:1
22,8:2
22,11:1
22,13:1
22,23:4
22,25:4
22,26:4
22,30:5
22,31:5
22,32:5
23,2:2
23,3:2
23,4:3
23,8:2
23,9:4
23,11:3
23,13:3
23,24:2
23,30:1
23,31:1
23,32:1
24,4:1
24,9:2
24,11:1
24,13:1
24,25:2
24,26:2
24,30:3
24,31:3
24,32:3
25,2:2
25,3:2
25,4:3
25,8:2
25,9:4
25,11:3
25,13:3
25,22:4
25,24:2
25,30:1
25,31:1
25,32:1
26,2:2
26,3:2
26,4:3
26,8:2
26,9:4
26,11:3
26,13:3
26,22:4
26,24:2
26,27:2
26,30:1
26,31:1
26,32:1
27,4:1
27,9:2
27,11:1
27,13:1
27,30:3
27,31:3
27,32:3
27,33:3
27,34:3
28,29:3
28,30:3
28,31:3
28,32:3
28,33:3
28,34:3
28,35:3
30,2:3
30,3:3
30,4:4
30,8:3
30,9:5
30,11:4
30,13:4
30,22:5
30,23:1
30,24:3
30,25:1
30,26:1
30,27:3
30,28:3
31,2:3
31,3:3
31,4:4
31,8:3
31,9:5
31,11:4
31,13:4
31,22:5
31,23:1
31,24:3
31,25:1
31,26:1
31,27:3
31,28:3
32,2:3
32,3:3
32,4:4
32,8:3
32,9:5
32,11:4
32,13:4
32,22:5
32,23:1
32,24:3
32,25:1
32,26:1
32,27:3
32,28:3
33,28:3
34,2:3
34,3:3
34,4:4
34,8:3
34,9:5
34,11:4
34,13:4
34,28:3
35,28:3

<setup times backward>
1,1:1
1,17:1
2,1:1
2,2:1
2,5:1
2,6:1
2,7:1
2,8:1
2,15:2
2,17:1
2,19:2
2,20:2
2,23:3
2,24:1
2,25:3
2,26:3
2,27:1
2,30:4
2,31:4
2,32:4
2,34:4
3,1:1
3,2:1
3,3:1
3,5:1
3,6:1
3,7:1
3,8:1
3,15:2
3,17:1
3,19:2
3,20:2
3,23:3
3,24:1
3,25:3
3,26:3
3,27:1
3,30:4
3,31:4
3,32:4
3,34:4
4,1:2
4,2:2
4,3:2
4,4:1
4,5:2
4,6:2
4,7:2
4,8:2
4,13:1
4,15:3
4,17:2
4,19:3
4,20:3
4,23:4
4,24:2
4,25:4
4,26:4
4,27:2
4,30:5
4,31:5
4,32:5
4,34:5
5,1:1
5,2:1
5,3:1
5,5:1
5,17:1
6,1:1
6,2:1
6,3:1
6,5:1
6,6:1
6,17:1
7,1:1
7,2:1
7,3:1
7,5:1
7,6:1
7,7:1
7,8:1
7,17:1
8,1:1
8,2:1
8,3:1
8,5:1
8,6:1
8,7:1
8,8:1
8,15:2
8,17:1
8,19:2
8,20:2
8,23:3
8,24:1
8,25:3
8,26:3
8,27:1
8,30:4
8,31:4
8,32:4
8,34:4
9,1:3
9,2:3
9,3:3
9,4:2
9,5:3
9,6:3
9,7:3
9,8:3
9,9:1
9,11:2
9,15:4
9,16:1
9,17:3
9,19:4
9,20:4
9,21:1
9,22:1
9,23:5
9,24:3
9,25:5
9,26:5
9,27:3
9,30:6
9,31:6
9,32:6
9,34:6
10,1:5
10,2:5
10,3:5
10,4:4
10,5:5
10,6:5
10,7:5
10,8:5
10,9:3
10,10:1
10,11:4
10,12:1
10,13:4
10,17:5
10,18:1
10,19:6
10,20:6
11,1:2
11,2:2
11,3:2
11,4:1
11,5:2
11,6:2
11,7:2
11,8:2
11,11:1
11,13:1
11,15:3
11,17:2
11,19:3
11,20:3
11,23:4
11,24:2
11,25:4
11,26:4
11,27:2
11,30:5
11,31:5
11,32:5
11,34:5
12,1:5
12,2:5
12,3:5
12,4:4
12,5:5
12,6:5
12,7:5
12,8:5
12,9:3
12,10:1
12,11:4
12,12:1
12,13:4
12,14:1
12,15:6
12,16:3
12,17:5
13,1:2
13,2:2
13,3:2
13,4:1
13,5:2
13,6:2
13,7:2
13,8:2
13,11:1
13,13:1
13,15:3
13,17:2
13,19:3
13,20:3
13,23:4
13,24:2
13,25:4
13,26:4
13,27:2
13,30:5
13,31:5
13,32:5
13,34:5
14,1:5
14,2:5
14,3:5
14,4:4
14,5:5
14,6:5
14,7:5
14,8:5
14,9:3
14,10:1
14,11:4
14,12:1
14,13:4
14,14:1
14,17:5
14,18:1
14,19:6
14,20:6
15,15:1
15,19:1
15,20:1
16,1:3
16,2:3
16,3:3
16,4:2
16,5:3
16,6:3
16,7:3
16,8:3
16,9:1
16,11:2
16,13:2
16,15:4
16,16:1
16,17:3
16,19:4
16,20:4
17,1:1
17,2:1
17,3:1
17,5:1
17,6:1
17,7:1
17,8:1
17,15:2
17,17:1
17,19:2
18,1:5
18,2:5
18,3:5
18,4:4
18,5:5
18,6:5
18,7:5
18,8:5
18,9:3
18,10:1
18,11:4
18,12:1
18,13:4
18,14:1
18,15:6
18,16:3
18,17:5
18,18:1
19,15:1
19,19:1
20,15:1
20,19:1
20,20:1
21,1:3
21,2:3
21,3:3
21,4:2
21,5:3
21,6:3
21,7:3
21,8:3
21,9:1
21,11:2
21,13:2
21,15:4
21,16:1
21,17:3
21,19:4
21,20:4
21,21:1
22,1:3
22,2:3
22,3:3
22,4:2
22,5:3
22,6:3
22,7:3
22,8:3
22,9:1
22,11:2
22,13:2
22,15:4
22,16:1
22,17:3
22,19:4
22,20:4
22,21:1
22,22:1
22,25:5
22,26:5
22,30:6
22,31:6
22,32:6
23,23:1
23,25:1
23,26:1
23,30:2
23,31:2
23,32:2
24,1:1
24,2:1
24,3:1
24,5:1
24,6:1
24,7:1
24,8:1
24,15:2
24,17:1
24,19:2
24,20:2
24,23:3
24,24:1
24,25:3
24,26:3
24,30:4
24,31:4
24,32:4
25,23:1
25,25:1
25,30:2
25,31:2
25,32:2
26,23:1
26,25:1
26,26:1
26,30:2
26,31:2
26,32:2
27,1:1
27,2:1
27,3:1
27,5:1
27,6:1
27,7:1
27,8:1
27,15:2
27,17:1
27,19:2
27,20:2
27,23:3
27,24:1
27,25:3
27,26:3
27,27:1
27,30:4
27,31:4
27,32:4
28,1:1
28,2:1
28,3:1
28,5:1
28,6:1
28,7:1
28,8:1
28,15:2
28,17:1
28,19:2
28,20:2
28,23:3
28,24:1
28,25:3
28,26:3
28,27:1
28,28:1
28,30:4
28,31:4
28,32:4
28,33:4
28,34:4
28,35:4
29,29:1
29,30:1
29,31:1
29,32:1
29,33:1
29,34:1
29,35:1
30,29:1
30,30:1
30,34:1
31,29:1
31,30:1
31,31:1
31,34:1
32,29:1
32,30:1
32,31:1
32,32:1
32,34:1
33,29:1
33,30:1
33,31:1
33,32:1
33,33:1
33,34:1
34,29:1
34,30:1
34,31:1
34,32:1
34,33:1
34,34:1
34,35:1
35,29:1
35,30:1
35,31:1
35,32:1
35,33:1
35,34:1
35,35:1

<end>

<optimal SALBP-1 value>
8


<rand seed>
467321153

<Lower Bounds>
Lm1=7
Lms1=7
Lm2=2
Lm3=5
Lm4=8
Best=8

<Optimal Stations (Iterations: 10)>
9
